StringID   Type       x          y          demand     ReadyTime  DueDate    ServiceTime
D0         d              16.353    74.267      0.000      0.000     23.983      0.000
S0         f              16.353    74.267      0.000      0.000     23.983      0.000
S1         f              18.340    58.760      0.000      0.000     23.983      0.000
S2         f              77.730    75.510      0.000      0.000     23.983      0.000
C0         c              75.024    46.169      0.025     10.134     12.848      0.062
C1         c              47.579    27.150      0.058     13.561     16.481      0.079
C2         c              18.148    32.570      0.073      8.000     11.628      0.087
C3         c              62.523    50.668      0.044     11.838     15.422      0.072
C4         c              41.031    12.730      0.099     15.431     19.002      0.100

Q Vehicle fuel tank capacity /111.4000/
C Vehicle load capacity /0.9800/
r fuel consumption rate /0.4152/
g inverse refueling rate /0.0073/
v average Velocity /35.0900/
gv charging speed /137.6900/

--------------------
instance_id /389/
number of clusters /7/
working_startTime (hour) /8.00/
working_endTime (hour) /20.07/
instance_endTime (hour) /23.98/
service_time_type /cargoweight/
demand_type /random/
instance_type /C/
instance x range /[0.0, 100.0]/
instance y range /[0.0, 100.0]/
cs_time_to_depot (hour)/[0.4455338987357702,1.74948946300326]/
